nApps = 234
nRes = 9
nActs = 456
nNetworks = 6

assignmentToResources = [3,3,3,3,1,1,1,2,1,3,3,1,3,1,2,2,3,3,2,1,1,2,2,3,3,1,1,1,2,3,1,2,1,2,3,2,2,1,2,1,1,2,2,3,1,3,2,2,2,2,2,2,2,1,2,3,2,2,2,3,3,3,1,3,2,3,3,2,3,3,3,3,3,1,3,1,1,1,3,1,1,1,1,1,3,3,1,1,3,1,1,3,3,3,2,2,1,1,3,1,6,6,6,6,6,6,6,6,6,6,6,6,6,4,4,4,5,5,4,4,6,6,6,6,6,6,6,6,4,5,5,5,5,5,5,5,5,6,6,6,6,6,5,5,5,4,4,4,4,4,5,5,5,6,6,6,6,6,6,6,6,4,4,4,4,5,5,4,4,5,5,4,4,5,5,6,6,5,4,5,4,4,5,5,5,5,5,5,5,4,4,6,5,5,5,5,5,5,5,5,5,5,5,4,5,5,6,5,5,5,5,6,6,6,6,6,6,6,4,6,5,5,5,6,6,5,5,5,6,6,6,6,6,6,6,4,4,4,6,6,6,4,4,4,4,4,6,6,4,4,6,4,6,6,6,5,5,4,4,5,7,4,9,5,7,6,8,5,7,4,9,5,9,4,8,4,9,4,9,5,7,4,9,6,8,6,8,6,7,5,9,4,8,6,7,4,8,8,7,7,7,7,8,8,7,8,8,7,7,7,8,9,9,7,9,8,9,8,7,7,7,7,8,7,8,9,9,7,7,9,9,7,7,9,7,7,7,8,7,7,7,7,8,9,8,8,9,7,9,7,7,7,8,8,7,8,8,7,9,9,9,9,7,7,9,8,9,9,9,9,7,9,8,7,7,9,7,8,9,9,9,7,7,7,7,7,8,9,8,7,7,7,9,7,7,9,9,7,9,9,9,9,7,8,7,7,9,9,7,7,7,8,8,7,8,8,7,9,7,9,7,7,9,9,9,7,7,7,7,7,8,8,9,9,9,7,8,7,9,9,8,8,9,7,8,8,9,7,9,7,8,7,7,9,9,8];

processingTimes = [112,96,104,64,112,136,136,136,112,128,128,128,128,136,72,136,112,56,160,120,48,160,48,128,104,64,64,136,136,168,112,64,96,48,136,136,104,64,120,128,112,104,144,64,120,56,72,120,128,104,112,56,136,128,80,112,104,72,112,80,88,136,88,112,104,80,104,128,104,160,88,96,80,120,120,80,112,72,120,136,72,128,136,120,120,56,168,136,120,168,136,136,136,96,72,104,80,128,136,160,5,4,4,5,4,4,3,3,4,13,13,3,4,3,500,4,3,3,3,3,3,3,3,4,1000,3,13,4,3,4,3,17,3,3,13,500,3,1000,4,4,3,4,3,500,4,4,3,500,500,5,4,4,3,1000,5,3,4,13,500,4,4,4,4,4,3,3,500,500,3,5,13,3,3,500,3,13,13,3,4,4,3,8,23,23,5,13,500,13,3,22,100,500,13,500,4,13,13,13,500,500,3,500,4,4,500,5,500,3,3,4,3,4,1000,3,3,13,13,500,500,5,4,4,4,5,3,500,4,500,4,5,5,5,3,200,3,23,23,500,1000,3,3,3,3,4,3,500,1000,6,3,23,4,3,3,4,1000,8,3,4,4,3,3,3,3,5,5,3,3,4,4,4,4,3,3,4,4,12,12,3,3,500,500,500,500,500,500,5,5,13,13,8,8,4,4,3,3,7,7,5,4,4,5,4,4,3,3,4,13,13,3,4,3,500,4,3,3,3,3,3,3,3,4,1000,3,13,4,3,4,3,17,3,3,13,500,3,1000,4,4,3,4,3,500,4,4,3,500,500,5,4,4,3,1000,5,3,4,13,500,4,4,4,4,4,3,3,500,500,3,5,13,3,3,500,3,13,13,3,4,4,3,8,23,23,5,13,500,13,3,22,100,500,13,500,4,13,13,13,500,500,3,500,4,4,500,5,500,3,3,4,3,4,1000,3,3,13,13,500,500,5,4,4,4,5,3,500,4,500,4,5,5,5,3,200,3,23,23,500,1000,3,3,3,3,4,3,500,1000,6,3,23,4,3,3,4,1000,8,3,4,4];

periods = [100000,20000,10000,20000,100000,20000,10000,10000,100000,10000,100000,100000,20000,10000,100000,20000,20000,20000,100000,100000,10000,10000,20000,10000,20000,100000,10000,20000,100000,10000,100000,10000,50000,100000,2000,20000,20000,20000,20000,20000,10000,10000,20000,10000,1000,100000,10000,20000,20000,20000,100000,10000,100000,10000,100000,10000,100000,20000,1000,20000,20000,20000,100000,100000,2000,50000,100000,10000,20000,10000,50000,10000,2000,20000,20000,2000,20000,100000,10000,50000,10000,100000,100000,20000,10000,20000,100000,100000,100000,20000,20000,50000,20000,10000,10000,1000,10000,10000,10000,100000,100000,100000,100000,20000,20000,20000,10000,10000,10000,10000,10000,20000,20000,100000,20000,20000,10000,10000,100000,100000,10000,10000,10000,100000,100000,100000,20000,20000,10000,100000,100000,20000,20000,20000,20000,20000,20000,20000,20000,20000,20000,20000,100000,100000,100000,100000,10000,10000,10000,10000,10000,10000,20000,10000,10000,20000,20000,20000,20000,20000,20000,100000,10000,20000,20000,100000,100000,100000,100000,10000,10000,50000,50000,100000,100000,2000,2000,20000,20000,20000,20000,10000,10000,10000,10000,10000,20000,20000,20000,1000,1000,100000,10000,20000,20000,20000,20000,20000,20000,100000,100000,10000,100000,10000,100000,100000,10000,100000,100000,20000,20000,20000,20000,20000,20000,20000,20000,20000,100000,100000,2000,2000,2000,50000,50000,10000,10000,10000,10000,10000,10000,50000,10000,2000,2000,20000,20000,20000,10000,10000,10000,10000,10000,100000,100000,20000,10000,20000,100000,100000,100000,20000,50000,50000,50000,10000,1000,10000,10000,20000,20000,20000,20000,10000,10000,10000,10000,10000,10000,10000,10000,10000,10000,10000,10000,10000,10000,10000,10000,10000,10000,10000,10000,100000,100000,20000,20000,20000,20000,20000,20000,20000,20000,10000,10000,2000,2000,100000,100000,100000,20000,20000,20000,10000,10000,10000,10000,10000,20000,20000,100000,20000,20000,10000,10000,100000,100000,10000,10000,10000,100000,100000,100000,20000,20000,10000,100000,100000,20000,20000,20000,20000,20000,20000,20000,20000,20000,20000,20000,100000,100000,100000,100000,10000,10000,10000,10000,10000,10000,20000,10000,10000,20000,20000,20000,20000,20000,20000,100000,10000,20000,20000,100000,100000,100000,100000,10000,10000,50000,50000,100000,100000,2000,2000,20000,20000,20000,20000,10000,10000,10000,10000,10000,20000,20000,20000,1000,1000,100000,10000,20000,20000,20000,20000,20000,20000,100000,100000,10000,100000,10000,100000,100000,10000,100000,100000,20000,20000,20000,20000,20000,20000,20000,20000,20000,100000,100000,2000,2000,2000,50000,50000,10000,10000,10000,10000,10000,10000,50000,10000,2000,2000,20000,20000,20000,10000,10000,10000,10000,10000,100000,100000,20000,10000,20000,100000,100000,100000,20000,50000,50000,50000,10000,1000,10000,10000];

assignmentToClusters = [1,2,3,4,5,6,7,7,8,7,9,10,11,12,13,14,15,16,17,18,7,19,20,7,21,22,7,23,24,7,25,26,27,28,29,6,30,31,32,33,34,35,33,19,36,28,37,38,33,39,40,41,42,7,43,44,45,46,47,48,30,33,25,49,50,51,52,7,6,53,54,55,56,57,58,50,59,60,61,27,44,62,63,64,65,6,66,67,68,69,33,70,71,65,7,72,19,73,74,75,76,77,78,79,80,81,82,83,84,85,86,87,88,89,90,91,92,93,94,95,96,97,98,99,100,101,102,103,104,105,106,107,108,109,110,111,112,113,114,115,116,117,118,119,120,121,122,123,124,125,126,127,128,129,130,131,132,133,134,135,136,137,138,139,140,141,142,143,144,145,146,147,148,149,150,151,152,153,154,155,156,157,158,159,160,161,162,163,164,165,166,167,168,169,170,171,172,173,174,175,176,177,178,179,180,181,182,183,184,185,186,187,188,189,190,191,192,193,194,195,196,197,198,199,200,201,202,203,204,205,206,207,208,209,210,211,212,213,214,215,216,217,218,219,220,221,222,223,224,225,226,227,228,229,230,231,232,233,234,6,6,6,6,7,7,7,7,7,7,7,7,7,7,7,7,7,7,7,7,19,19,19,19,28,28,30,30,33,33,33,33,33,33,44,44,50,50,76,77,78,79,80,81,82,83,84,85,86,87,88,89,90,91,92,93,94,95,96,97,98,99,100,101,102,103,104,105,106,107,108,109,110,111,112,113,114,115,116,117,118,119,120,121,122,123,124,125,126,127,128,129,130,131,132,133,134,135,136,137,138,139,140,141,142,143,144,145,146,147,148,149,150,151,152,153,154,155,156,157,158,159,160,161,162,163,164,165,166,167,168,169,170,171,172,173,174,175,176,177,178,179,180,181,182,183,184,185,186,187,188,189,190,191,192,193,194,195,196,197,198,199,200,201,202,203,204,205,206,207,208,209,210,211,212,213,214,215,216,217,218,219,220,221,222,223,224,225,226,227,228,229,230,231,232,233,234];

precedenceAdjList = [[],[],[],[],[],[260],[264],[274],[],[],[],[],[],[],[],[],[],[],[],[],[],[],[],[276,278],[],[],[],[],[],[270,272],[62],[],[79],[284],[],[],[286],[],[],[288],[],[],[292],[282],[],[],[],[],[],[],[],[],[],[268],[],[],[],[],[],[],[],[290],[],[],[296],[],[],[94],[262],[],[],[],[],[],[],[],[],[],[],[],[294],[],[],[],[],[68],[],[],[],[],[39],[],[],[84],[266],[],[280],[],[],[],[],[],[],[],[],[],[],[],[],[],[],[],[],[],[],[],[],[],[],[],[],[],[],[],[],[],[],[],[],[],[],[],[],[],[],[],[],[],[],[],[],[],[],[],[],[],[],[],[],[],[],[],[],[],[],[],[],[],[],[],[],[],[],[],[],[],[],[],[],[],[],[],[],[],[],[],[],[],[],[],[],[],[],[],[],[],[],[],[],[],[],[],[],[],[],[],[],[],[],[],[],[],[],[],[],[],[],[],[],[],[],[],[],[],[],[],[],[],[],[],[],[],[],[],[],[],[],[],[],[],[],[],[],[],[],[],[],[],[],[],[],[],[],[],[],[],[],[],[],[],[],[],[],[],[],[],[],[],[],[35],[259],[5],[261],[94],[263],[9],[265],[67],[267],[53],[269],[7],[271],[20],[273],[6],[275],[26],[277],[21],[279],[96],[281],[45],[283],[60],[285],[61],[287],[48],[289],[90],[291],[55],[293],[75],[295],[100],[101],[102],[103],[104],[105],[106],[107],[108],[109],[110],[111],[112],[113],[114],[115],[116],[117],[118],[119],[120],[121],[122],[123],[124],[125],[126],[127],[128],[129],[130],[131],[132],[133],[134],[135],[136],[137],[138],[139],[140],[141],[142],[143],[144],[145],[146],[147],[148],[149],[150],[151],[152],[153],[154],[155],[156],[157],[158],[159],[160],[161],[162],[163],[164],[165],[166],[167],[168],[169],[170],[171],[172],[173],[174],[175],[176],[177],[178],[179],[180],[181],[182],[183],[184],[185],[186],[187],[188],[189],[190],[191],[192],[193],[194],[195],[196],[197],[198],[199],[200],[201],[202],[203],[204],[205],[206],[207],[208],[209],[210],[211],[212],[213],[214],[215],[216],[217],[218],[219],[220],[221],[222],[223],[224],[225],[226],[227],[228],[229],[230],[231],[232],[233],[234],[235],[236],[237],[238],[239],[240],[241],[242],[243],[244],[245],[246],[247],[248],[249],[250],[251],[252],[253],[254],[255],[256],[257],[258]];